# created by fftool

units real
boundary p p p

atom_style full
bond_style hybrid harmonic
angle_style hybrid harmonic
dihedral_style hybrid multi/harmonic charmm
special_bonds lj 0.0 0.0 0.5 coul 0.0 0.0 0.83333333

pair_style lj/cut/coul/long 9.0 9.0
pair_modify tail yes

read_data DBTTT100Kflat_thermo.eq.lmp
kspace_style pppm 1e-8

pair_coeff 1 1   0.2824000   3.5324134
pair_coeff 2 2   0.0988000   3.3152123
pair_coeff 3 3   0.0988000   3.3152123
pair_coeff 4 4   0.0161000   2.6254785
pair_coeff 5 5   0.0988000   3.3152123
pair_coeff 6 6   0.1078000   3.3977095
pair_coeff 7 7   0.0208000   2.6001770

pair_modify mix arithmetic

variable TK equal 300.0
variable PBAR equal 1.0

neighbor 2.0 bin
neigh_modify delay 0 every 1 check yes

timestep 1.0

fix TPSTAT all npt temp 100 ${TK} $(100.0*dt) tri ${PBAR} ${PBAR} $(1000.0*dt)

fix 1 all momentum 1 linear 1 1 1 rescale
fix 2 all recenter INIT INIT INIT

thermo 5000
thermo_style custom step cpu cella cellb cellc cellalpha cellbeta cellgamma density vol temp press ke pe etotal
run 200000
write_data DBTTT300K.data
unfix TPSTAT

fix TPSTAT all npt temp ${TK} ${TK} $(100.0*dt) tri ${PBAR} ${PBAR} $(1000.0*dt)

fix pl all plumed plumedfile p_dih_prod.dat outfile log.plumed

dump TRAJ all custom 5000 prod_DBTTT.lammpstrj id mol type element q x y z
dump XTC all xtc 5000 prod_DBTTT.xtc

run 300000000
write_data DBTTT100Kimpulse_prod.eq.lmp
